c File: data_files/evolved_graphs/g3717.col
c
c Auto generated graph
c
p edge 100 2320
e 1 2
e 1 4
e 1 5
e 1 6
e 1 7
e 1 15
e 1 17
e 1 25
e 1 30
e 1 39
e 1 41
e 1 42
e 1 50
e 1 52
e 1 57
e 1 60
e 1 67
e 1 73
e 1 78
e 1 92
e 1 93
e 2 3
e 2 5
e 2 6
e 2 20
e 2 26
e 2 36
e 2 37
e 2 42
e 2 43
e 2 48
e 2 59
e 2 61
e 2 62
e 2 64
e 2 74
e 2 75
e 2 85
e 2 88
e 2 94
e 3 4
e 3 6
e 3 7
e 3 11
e 3 15
e 3 17
e 3 18
e 3 21
e 3 24
e 3 26
e 3 35
e 3 40
e 3 42
e 3 47
e 3 51
e 3 52
e 3 58
e 3 66
e 3 79
e 3 81
e 3 83
e 3 84
e 3 89
e 4 6
e 4 8
e 4 10
e 4 23
e 4 31
e 4 38
e 4 43
e 4 57
e 4 66
e 4 69
e 4 71
e 4 73
e 4 74
e 4 86
e 4 89
e 4 90
e 4 97
e 5 6
e 5 7
e 5 15
e 5 18
e 5 33
e 5 37
e 5 43
e 5 48
e 5 53
e 5 55
e 5 57
e 5 58
e 5 61
e 5 64
e 5 73
e 5 74
e 5 78
e 6 7
e 6 9
e 6 11
e 6 18
e 6 19
e 6 24
e 6 32
e 6 43
e 6 50
e 6 51
e 6 55
e 6 61
e 6 65
e 6 71
e 6 73
e 6 74
e 6 76
e 6 78
e 6 85
e 6 87
e 6 90
e 7 9
e 7 11
e 7 24
e 7 25
e 7 27
e 7 31
e 7 32
e 7 39
e 7 45
e 7 46
e 7 48
e 7 53
e 7 57
e 7 68
e 7 74
e 7 75
e 7 79
e 7 80
e 7 85
e 7 86
e 8 9
e 8 10
e 8 11
e 8 12
e 8 18
e 8 19
e 8 22
e 8 23
e 8 26
e 8 27
e 8 29
e 8 30
e 8 31
e 8 32
e 8 33
e 8 40
e 8 41
e 8 44
e 8 46
e 8 47
e 8 48
e 8 49
e 8 50
e 8 54
e 8 55
e 8 56
e 8 57
e 8 60
e 8 62
e 8 63
e 8 67
e 8 68
e 8 69
e 8 72
e 8 74
e 8 77
e 8 78
e 8 79
e 8 80
e 8 82
e 8 85
e 8 86
e 8 89
e 8 90
e 8 92
e 9 10
e 9 12
e 9 13
e 9 14
e 9 20
e 9 21
e 9 22
e 9 26
e 9 29
e 9 31
e 9 32
e 9 34
e 9 37
e 9 39
e 9 42
e 9 43
e 9 47
e 9 51
e 9 53
e 9 55
e 9 56
e 9 57
e 9 59
e 9 60
e 9 64
e 9 66
e 9 72
e 9 73
e 9 74
e 9 76
e 9 78
e 9 81
e 9 82
e 9 84
e 9 85
e 9 86
e 9 87
e 9 88
e 9 91
e 9 92
e 9 93
e 10 12
e 10 13
e 10 16
e 10 17
e 10 19
e 10 20
e 10 23
e 10 24
e 10 25
e 10 26
e 10 27
e 10 29
e 10 30
e 10 32
e 10 33
e 10 34
e 10 36
e 10 37
e 10 39
e 10 41
e 10 43
e 10 48
e 10 49
e 10 51
e 10 52
e 10 53
e 10 57
e 10 58
e 10 60
e 10 63
e 10 65
e 10 68
e 10 70
e 10 72
e 10 73
e 10 74
e 10 76
e 10 79
e 10 80
e 10 83
e 10 85
e 10 86
e 10 87
e 10 89
e 10 91
e 10 92
e 11 19
e 11 20
e 11 21
e 11 23
e 11 25
e 11 28
e 11 29
e 11 30
e 11 31
e 11 32
e 11 33
e 11 34
e 11 35
e 11 36
e 11 37
e 11 40
e 11 42
e 11 44
e 11 45
e 11 50
e 11 51
e 11 52
e 11 54
e 11 55
e 11 57
e 11 58
e 11 61
e 11 62
e 11 63
e 11 64
e 11 65
e 11 66
e 11 67
e 11 72
e 11 73
e 11 74
e 11 76
e 11 77
e 11 78
e 11 79
e 11 80
e 11 83
e 11 85
e 11 87
e 11 88
e 11 89
e 11 90
e 11 93
e 11 100
e 12 13
e 12 14
e 12 15
e 12 16
e 12 17
e 12 24
e 12 25
e 12 28
e 12 29
e 12 30
e 12 34
e 12 35
e 12 36
e 12 41
e 12 43
e 12 44
e 12 45
e 12 46
e 12 50
e 12 55
e 12 59
e 12 61
e 12 63
e 12 65
e 12 68
e 12 69
e 12 70
e 12 71
e 12 76
e 12 80
e 12 81
e 12 82
e 12 85
e 12 87
e 12 90
e 12 92
e 12 93
e 13 14
e 13 17
e 13 18
e 13 19
e 13 21
e 13 22
e 13 25
e 13 28
e 13 30
e 13 32
e 13 37
e 13 39
e 13 41
e 13 43
e 13 45
e 13 46
e 13 50
e 13 51
e 13 52
e 13 54
e 13 57
e 13 59
e 13 60
e 13 62
e 13 63
e 13 64
e 13 66
e 13 68
e 13 70
e 13 72
e 13 73
e 13 75
e 13 76
e 13 79
e 13 81
e 13 86
e 13 87
e 13 88
e 13 91
e 13 92
e 13 93
e 14 16
e 14 18
e 14 19
e 14 22
e 14 23
e 14 26
e 14 27
e 14 28
e 14 29
e 14 30
e 14 33
e 14 35
e 14 36
e 14 37
e 14 39
e 14 41
e 14 42
e 14 43
e 14 44
e 14 45
e 14 47
e 14 50
e 14 52
e 14 57
e 14 58
e 14 61
e 14 63
e 14 64
e 14 66
e 14 67
e 14 71
e 14 73
e 14 75
e 14 76
e 14 80
e 14 82
e 14 83
e 14 84
e 14 87
e 14 88
e 14 92
e 15 16
e 15 17
e 15 19
e 15 22
e 15 23
e 15 24
e 15 25
e 15 27
e 15 28
e 15 30
e 15 31
e 15 32
e 15 34
e 15 35
e 15 36
e 15 37
e 15 42
e 15 43
e 15 45
e 15 46
e 15 47
e 15 49
e 15 51
e 15 54
e 15 55
e 15 56
e 15 57
e 15 58
e 15 59
e 15 62
e 15 64
e 15 66
e 15 68
e 15 71
e 15 73
e 15 76
e 15 77
e 15 80
e 15 82
e 15 85
e 15 87
e 15 88
e 16 18
e 16 20
e 16 21
e 16 22
e 16 24
e 16 29
e 16 38
e 16 39
e 16 40
e 16 41
e 16 43
e 16 45
e 16 46
e 16 47
e 16 50
e 16 53
e 16 54
e 16 55
e 16 56
e 16 58
e 16 60
e 16 61
e 16 62
e 16 63
e 16 64
e 16 65
e 16 67
e 16 68
e 16 71
e 16 72
e 16 73
e 16 75
e 16 79
e 16 84
e 16 87
e 16 89
e 16 90
e 16 93
e 17 21
e 17 22
e 17 23
e 17 24
e 17 25
e 17 28
e 17 31
e 17 33
e 17 34
e 17 35
e 17 36
e 17 38
e 17 39
e 17 41
e 17 42
e 17 45
e 17 49
e 17 54
e 17 55
e 17 57
e 17 58
e 17 59
e 17 60
e 17 61
e 17 62
e 17 63
e 17 64
e 17 66
e 17 67
e 17 69
e 17 72
e 17 75
e 17 76
e 17 79
e 17 82
e 17 84
e 17 85
e 17 87
e 17 90
e 17 91
e 17 93
e 18 20
e 18 21
e 18 24
e 18 25
e 18 26
e 18 27
e 18 28
e 18 29
e 18 30
e 18 31
e 18 35
e 18 36
e 18 37
e 18 38
e 18 39
e 18 42
e 18 43
e 18 45
e 18 46
e 18 47
e 18 48
e 18 49
e 18 50
e 18 52
e 18 53
e 18 55
e 18 58
e 18 66
e 18 67
e 18 69
e 18 70
e 18 71
e 18 72
e 18 73
e 18 75
e 18 76
e 18 77
e 18 81
e 18 82
e 18 84
e 18 86
e 18 87
e 18 90
e 18 91
e 18 92
e 18 93
e 19 21
e 19 23
e 19 25
e 19 26
e 19 27
e 19 30
e 19 31
e 19 32
e 19 33
e 19 34
e 19 35
e 19 36
e 19 38
e 19 39
e 19 40
e 19 42
e 19 43
e 19 45
e 19 46
e 19 48
e 19 49
e 19 50
e 19 51
e 19 52
e 19 53
e 19 54
e 19 55
e 19 56
e 19 57
e 19 58
e 19 59
e 19 61
e 19 62
e 19 65
e 19 67
e 19 68
e 19 70
e 19 71
e 19 74
e 19 75
e 19 76
e 19 77
e 19 78
e 19 80
e 19 81
e 19 86
e 19 88
e 19 89
e 19 90
e 19 92
e 19 98
e 20 22
e 20 23
e 20 24
e 20 25
e 20 28
e 20 30
e 20 31
e 20 34
e 20 36
e 20 39
e 20 41
e 20 42
e 20 43
e 20 45
e 20 47
e 20 48
e 20 49
e 20 50
e 20 51
e 20 54
e 20 55
e 20 56
e 20 57
e 20 58
e 20 59
e 20 60
e 20 61
e 20 62
e 20 63
e 20 66
e 20 68
e 20 72
e 20 73
e 20 76
e 20 77
e 20 78
e 20 80
e 20 81
e 20 82
e 20 83
e 20 85
e 20 88
e 20 92
e 20 93
e 21 22
e 21 23
e 21 25
e 21 26
e 21 27
e 21 31
e 21 32
e 21 35
e 21 37
e 21 38
e 21 39
e 21 40
e 21 41
e 21 42
e 21 43
e 21 44
e 21 45
e 21 50
e 21 51
e 21 52
e 21 53
e 21 55
e 21 57
e 21 58
e 21 59
e 21 64
e 21 66
e 21 67
e 21 69
e 21 73
e 21 74
e 21 75
e 21 77
e 21 78
e 21 80
e 21 81
e 21 83
e 21 84
e 21 85
e 21 86
e 21 88
e 21 89
e 21 90
e 21 92
e 21 99
e 22 23
e 22 25
e 22 26
e 22 27
e 22 28
e 22 29
e 22 32
e 22 33
e 22 35
e 22 36
e 22 37
e 22 38
e 22 41
e 22 42
e 22 46
e 22 47
e 22 49
e 22 50
e 22 53
e 22 54
e 22 55
e 22 56
e 22 57
e 22 58
e 22 59
e 22 60
e 22 61
e 22 62
e 22 63
e 22 64
e 22 65
e 22 68
e 22 70
e 22 71
e 22 77
e 22 78
e 22 79
e 22 80
e 22 81
e 22 82
e 22 84
e 22 85
e 22 87
e 22 89
e 22 90
e 22 91
e 23 25
e 23 26
e 23 27
e 23 28
e 23 29
e 23 31
e 23 33
e 23 34
e 23 35
e 23 38
e 23 39
e 23 40
e 23 42
e 23 43
e 23 44
e 23 45
e 23 48
e 23 53
e 23 54
e 23 55
e 23 56
e 23 57
e 23 58
e 23 59
e 23 60
e 23 63
e 23 64
e 23 66
e 23 67
e 23 68
e 23 69
e 23 72
e 23 74
e 23 75
e 23 76
e 23 77
e 23 78
e 23 79
e 23 81
e 23 84
e 23 87
e 23 89
e 23 90
e 23 92
e 23 93
e 23 96
e 24 27
e 24 28
e 24 30
e 24 35
e 24 37
e 24 39
e 24 41
e 24 46
e 24 49
e 24 50
e 24 52
e 24 56
e 24 57
e 24 59
e 24 60
e 24 63
e 24 68
e 24 71
e 24 74
e 24 75
e 24 76
e 24 77
e 24 78
e 24 79
e 24 80
e 24 81
e 24 83
e 24 87
e 24 88
e 24 92
e 25 26
e 25 27
e 25 29
e 25 30
e 25 31
e 25 32
e 25 33
e 25 36
e 25 37
e 25 39
e 25 40
e 25 42
e 25 45
e 25 48
e 25 49
e 25 50
e 25 52
e 25 55
e 25 56
e 25 57
e 25 58
e 25 59
e 25 60
e 25 63
e 25 64
e 25 67
e 25 68
e 25 69
e 25 70
e 25 72
e 25 77
e 25 81
e 25 82
e 25 83
e 25 84
e 25 85
e 25 86
e 25 87
e 25 89
e 25 91
e 25 93
e 26 27
e 26 28
e 26 29
e 26 33
e 26 34
e 26 39
e 26 42
e 26 45
e 26 46
e 26 47
e 26 49
e 26 51
e 26 53
e 26 55
e 26 56
e 26 57
e 26 59
e 26 61
e 26 62
e 26 64
e 26 66
e 26 67
e 26 70
e 26 71
e 26 73
e 26 76
e 26 77
e 26 78
e 26 79
e 26 80
e 26 81
e 26 82
e 26 83
e 26 85
e 26 87
e 26 91
e 26 93
e 27 31
e 27 35
e 27 37
e 27 38
e 27 39
e 27 40
e 27 41
e 27 42
e 27 44
e 27 46
e 27 47
e 27 48
e 27 50
e 27 51
e 27 55
e 27 56
e 27 57
e 27 58
e 27 60
e 27 61
e 27 62
e 27 64
e 27 67
e 27 68
e 27 71
e 27 73
e 27 76
e 27 79
e 27 80
e 27 81
e 27 84
e 27 85
e 27 87
e 27 88
e 27 89
e 27 92
e 27 95
e 28 29
e 28 30
e 28 35
e 28 37
e 28 42
e 28 43
e 28 44
e 28 45
e 28 46
e 28 47
e 28 49
e 28 51
e 28 53
e 28 55
e 28 57
e 28 59
e 28 62
e 28 63
e 28 64
e 28 65
e 28 67
e 28 68
e 28 74
e 28 75
e 28 77
e 28 78
e 28 79
e 28 83
e 28 84
e 28 85
e 28 86
e 28 87
e 28 88
e 28 91
e 28 92
e 28 93
e 29 30
e 29 32
e 29 33
e 29 34
e 29 35
e 29 40
e 29 42
e 29 47
e 29 49
e 29 51
e 29 52
e 29 53
e 29 54
e 29 57
e 29 59
e 29 63
e 29 64
e 29 65
e 29 67
e 29 68
e 29 72
e 29 75
e 29 77
e 29 78
e 29 84
e 29 90
e 29 91
e 29 93
e 30 31
e 30 32
e 30 34
e 30 37
e 30 39
e 30 41
e 30 42
e 30 43
e 30 44
e 30 45
e 30 48
e 30 50
e 30 52
e 30 54
e 30 55
e 30 56
e 30 59
e 30 62
e 30 63
e 30 65
e 30 70
e 30 71
e 30 73
e 30 74
e 30 76
e 30 77
e 30 79
e 30 80
e 30 84
e 30 85
e 30 86
e 30 89
e 30 92
e 30 93
e 31 32
e 31 33
e 31 35
e 31 36
e 31 38
e 31 39
e 31 41
e 31 42
e 31 43
e 31 44
e 31 45
e 31 47
e 31 48
e 31 54
e 31 57
e 31 58
e 31 59
e 31 61
e 31 62
e 31 63
e 31 64
e 31 66
e 31 67
e 31 68
e 31 70
e 31 71
e 31 72
e 31 77
e 31 78
e 31 79
e 31 80
e 31 81
e 31 84
e 31 85
e 31 89
e 31 90
e 31 91
e 31 92
e 32 34
e 32 35
e 32 36
e 32 37
e 32 38
e 32 42
e 32 46
e 32 49
e 32 50
e 32 51
e 32 52
e 32 53
e 32 54
e 32 56
e 32 57
e 32 59
e 32 66
e 32 68
e 32 69
e 32 72
e 32 74
e 32 77
e 32 79
e 32 81
e 32 83
e 32 84
e 32 87
e 32 88
e 32 90
e 32 91
e 32 92
e 32 93
e 32 96
e 33 34
e 33 36
e 33 40
e 33 42
e 33 43
e 33 45
e 33 46
e 33 47
e 33 48
e 33 49
e 33 50
e 33 52
e 33 53
e 33 54
e 33 55
e 33 57
e 33 58
e 33 59
e 33 60
e 33 62
e 33 63
e 33 65
e 33 67
e 33 68
e 33 69
e 33 72
e 33 74
e 33 75
e 33 76
e 33 79
e 33 80
e 33 81
e 33 82
e 33 83
e 33 84
e 33 85
e 33 86
e 33 87
e 33 89
e 33 91
e 34 35
e 34 36
e 34 37
e 34 39
e 34 41
e 34 42
e 34 43
e 34 44
e 34 49
e 34 50
e 34 51
e 34 53
e 34 55
e 34 57
e 34 59
e 34 62
e 34 64
e 34 67
e 34 70
e 34 71
e 34 75
e 34 76
e 34 80
e 34 82
e 34 83
e 34 84
e 34 86
e 34 87
e 34 88
e 34 91
e 34 92
e 34 93
e 35 40
e 35 42
e 35 43
e 35 44
e 35 45
e 35 46
e 35 51
e 35 52
e 35 55
e 35 56
e 35 57
e 35 58
e 35 59
e 35 60
e 35 62
e 35 66
e 35 69
e 35 71
e 35 72
e 35 73
e 35 74
e 35 77
e 35 78
e 35 79
e 35 80
e 35 81
e 35 82
e 35 83
e 35 85
e 35 86
e 35 87
e 35 88
e 35 89
e 35 90
e 35 91
e 35 93
e 36 38
e 36 40
e 36 41
e 36 42
e 36 43
e 36 44
e 36 47
e 36 48
e 36 49
e 36 54
e 36 55
e 36 59
e 36 60
e 36 61
e 36 62
e 36 63
e 36 64
e 36 65
e 36 66
e 36 68
e 36 72
e 36 73
e 36 74
e 36 75
e 36 76
e 36 78
e 36 80
e 36 81
e 36 83
e 36 84
e 36 85
e 36 86
e 36 87
e 36 88
e 36 91
e 36 93
e 37 38
e 37 39
e 37 41
e 37 42
e 37 43
e 37 44
e 37 45
e 37 47
e 37 49
e 37 51
e 37 53
e 37 54
e 37 56
e 37 57
e 37 58
e 37 60
e 37 61
e 37 62
e 37 66
e 37 68
e 37 69
e 37 70
e 37 72
e 37 73
e 37 74
e 37 75
e 37 81
e 37 82
e 37 83
e 37 85
e 37 87
e 37 88
e 37 91
e 37 92
e 37 93
e 38 39
e 38 41
e 38 42
e 38 45
e 38 47
e 38 48
e 38 52
e 38 53
e 38 54
e 38 55
e 38 56
e 38 57
e 38 58
e 38 62
e 38 63
e 38 64
e 38 65
e 38 66
e 38 71
e 38 72
e 38 73
e 38 75
e 38 76
e 38 78
e 38 79
e 38 80
e 38 82
e 38 84
e 38 85
e 38 86
e 38 89
e 38 92
e 38 93
e 39 40
e 39 41
e 39 47
e 39 50
e 39 52
e 39 53
e 39 54
e 39 56
e 39 57
e 39 59
e 39 60
e 39 61
e 39 63
e 39 65
e 39 67
e 39 69
e 39 71
e 39 72
e 39 73
e 39 74
e 39 75
e 39 76
e 39 78
e 39 79
e 39 80
e 39 81
e 39 82
e 39 83
e 39 84
e 39 85
e 39 86
e 39 87
e 39 88
e 39 89
e 39 90
e 40 41
e 40 44
e 40 48
e 40 49
e 40 50
e 40 51
e 40 52
e 40 55
e 40 56
e 40 61
e 40 63
e 40 65
e 40 67
e 40 68
e 40 69
e 40 70
e 40 75
e 40 76
e 40 79
e 40 80
e 40 82
e 40 83
e 40 86
e 40 92
e 40 93
e 41 42
e 41 44
e 41 48
e 41 49
e 41 50
e 41 52
e 41 55
e 41 56
e 41 57
e 41 58
e 41 59
e 41 62
e 41 63
e 41 64
e 41 65
e 41 66
e 41 67
e 41 68
e 41 69
e 41 71
e 41 72
e 41 73
e 41 74
e 41 79
e 41 85
e 41 87
e 41 88
e 41 90
e 41 92
e 42 44
e 42 45
e 42 49
e 42 52
e 42 54
e 42 56
e 42 57
e 42 58
e 42 60
e 42 61
e 42 62
e 42 63
e 42 66
e 42 68
e 42 71
e 42 72
e 42 73
e 42 74
e 42 77
e 42 79
e 42 80
e 42 81
e 42 82
e 42 83
e 42 84
e 42 86
e 42 88
e 42 89
e 42 90
e 42 91
e 42 93
e 43 45
e 43 46
e 43 47
e 43 49
e 43 52
e 43 57
e 43 58
e 43 59
e 43 62
e 43 66
e 43 67
e 43 68
e 43 70
e 43 71
e 43 74
e 43 76
e 43 78
e 43 79
e 43 82
e 43 83
e 43 84
e 43 86
e 43 88
e 43 89
e 43 90
e 43 91
e 43 93
e 44 46
e 44 49
e 44 51
e 44 52
e 44 54
e 44 55
e 44 56
e 44 58
e 44 60
e 44 61
e 44 64
e 44 65
e 44 66
e 44 68
e 44 71
e 44 73
e 44 74
e 44 75
e 44 76
e 44 77
e 44 79
e 44 80
e 44 81
e 44 86
e 44 89
e 44 90
e 44 91
e 44 96
e 45 46
e 45 47
e 45 48
e 45 51
e 45 52
e 45 56
e 45 57
e 45 60
e 45 61
e 45 62
e 45 63
e 45 64
e 45 70
e 45 72
e 45 74
e 45 76
e 45 77
e 45 80
e 45 81
e 45 82
e 45 83
e 45 85
e 45 86
e 45 87
e 45 90
e 45 92
e 45 93
e 46 48
e 46 49
e 46 50
e 46 51
e 46 55
e 46 56
e 46 58
e 46 60
e 46 61
e 46 62
e 46 63
e 46 67
e 46 68
e 46 73
e 46 74
e 46 75
e 46 76
e 46 77
e 46 80
e 46 81
e 46 82
e 46 83
e 46 87
e 46 88
e 46 89
e 46 90
e 46 95
e 46 99
e 47 49
e 47 50
e 47 51
e 47 52
e 47 53
e 47 54
e 47 58
e 47 59
e 47 61
e 47 66
e 47 69
e 47 74
e 47 76
e 47 77
e 47 79
e 47 81
e 47 84
e 47 86
e 47 88
e 47 89
e 47 96
e 48 49
e 48 50
e 48 53
e 48 57
e 48 58
e 48 59
e 48 60
e 48 63
e 48 67
e 48 68
e 48 69
e 48 70
e 48 71
e 48 74
e 48 76
e 48 77
e 48 78
e 48 79
e 48 81
e 48 84
e 48 85
e 48 86
e 48 87
e 48 89
e 48 90
e 48 91
e 48 92
e 48 93
e 48 99
e 49 50
e 49 53
e 49 56
e 49 58
e 49 59
e 49 61
e 49 65
e 49 66
e 49 67
e 49 68
e 49 69
e 49 71
e 49 72
e 49 74
e 49 77
e 49 78
e 49 80
e 49 83
e 49 84
e 49 85
e 49 86
e 49 87
e 49 89
e 49 90
e 49 91
e 49 94
e 49 97
e 50 51
e 50 52
e 50 53
e 50 54
e 50 55
e 50 56
e 50 57
e 50 59
e 50 62
e 50 64
e 50 65
e 50 67
e 50 69
e 50 70
e 50 71
e 50 72
e 50 73
e 50 74
e 50 75
e 50 76
e 50 78
e 50 79
e 50 80
e 50 83
e 50 84
e 50 87
e 50 89
e 50 90
e 50 91
e 50 93
e 51 52
e 51 53
e 51 55
e 51 56
e 51 58
e 51 59
e 51 60
e 51 62
e 51 64
e 51 65
e 51 66
e 51 67
e 51 68
e 51 70
e 51 71
e 51 73
e 51 75
e 51 76
e 51 77
e 51 82
e 51 84
e 51 88
e 51 89
e 51 92
e 51 97
e 51 100
e 52 54
e 52 55
e 52 56
e 52 58
e 52 59
e 52 60
e 52 61
e 52 63
e 52 67
e 52 68
e 52 69
e 52 71
e 52 74
e 52 75
e 52 76
e 52 78
e 52 80
e 52 82
e 52 84
e 52 85
e 52 86
e 52 88
e 52 92
e 52 93
e 52 95
e 52 97
e 52 98
e 53 54
e 53 57
e 53 58
e 53 59
e 53 61
e 53 62
e 53 63
e 53 64
e 53 66
e 53 67
e 53 68
e 53 69
e 53 70
e 53 73
e 53 74
e 53 75
e 53 76
e 53 78
e 53 79
e 53 80
e 53 81
e 53 82
e 53 83
e 53 85
e 53 86
e 53 88
e 53 90
e 53 92
e 53 93
e 53 100
e 54 57
e 54 58
e 54 61
e 54 62
e 54 63
e 54 64
e 54 65
e 54 66
e 54 67
e 54 68
e 54 69
e 54 70
e 54 71
e 54 72
e 54 73
e 54 74
e 54 75
e 54 76
e 54 78
e 54 79
e 54 80
e 54 81
e 54 83
e 54 85
e 54 86
e 54 87
e 54 88
e 54 91
e 54 95
e 54 96
e 54 98
e 55 56
e 55 57
e 55 58
e 55 59
e 55 60
e 55 62
e 55 63
e 55 64
e 55 65
e 55 67
e 55 68
e 55 69
e 55 70
e 55 71
e 55 72
e 55 76
e 55 77
e 55 81
e 55 82
e 55 84
e 55 87
e 55 89
e 55 91
e 55 93
e 56 57
e 56 59
e 56 61
e 56 62
e 56 63
e 56 64
e 56 66
e 56 68
e 56 69
e 56 70
e 56 71
e 56 72
e 56 73
e 56 74
e 56 77
e 56 78
e 56 81
e 56 82
e 56 83
e 56 85
e 56 86
e 56 88
e 56 90
e 56 91
e 56 93
e 56 96
e 56 99
e 57 59
e 57 63
e 57 68
e 57 70
e 57 71
e 57 74
e 57 75
e 57 76
e 57 83
e 57 84
e 57 85
e 57 87
e 57 89
e 57 91
e 57 93
e 57 100
e 58 59
e 58 61
e 58 63
e 58 65
e 58 67
e 58 68
e 58 69
e 58 71
e 58 77
e 58 78
e 58 79
e 58 80
e 58 84
e 58 85
e 58 86
e 58 87
e 58 88
e 58 90
e 58 92
e 58 94
e 58 99
e 59 61
e 59 63
e 59 64
e 59 65
e 59 66
e 59 68
e 59 69
e 59 70
e 59 72
e 59 74
e 59 75
e 59 76
e 59 77
e 59 78
e 59 85
e 59 87
e 59 90
e 59 91
e 59 92
e 59 94
e 59 98
e 60 61
e 60 62
e 60 63
e 60 64
e 60 66
e 60 67
e 60 68
e 60 71
e 60 72
e 60 73
e 60 75
e 60 78
e 60 79
e 60 81
e 60 82
e 60 84
e 60 85
e 60 86
e 60 89
e 60 90
e 60 91
e 60 92
e 60 93
e 60 94
e 61 62
e 61 63
e 61 64
e 61 65
e 61 67
e 61 68
e 61 70
e 61 71
e 61 73
e 61 76
e 61 78
e 61 79
e 61 81
e 61 82
e 61 83
e 61 85
e 61 86
e 61 88
e 61 91
e 61 97
e 61 100
e 62 64
e 62 65
e 62 66
e 62 67
e 62 68
e 62 73
e 62 74
e 62 75
e 62 77
e 62 80
e 62 82
e 62 83
e 62 84
e 62 88
e 62 89
e 62 92
e 62 93
e 62 95
e 62 100
e 63 64
e 63 66
e 63 69
e 63 72
e 63 74
e 63 75
e 63 76
e 63 77
e 63 78
e 63 79
e 63 83
e 63 84
e 63 87
e 63 88
e 63 89
e 63 90
e 63 93
e 64 65
e 64 66
e 64 68
e 64 70
e 64 71
e 64 74
e 64 84
e 64 85
e 64 87
e 64 88
e 64 89
e 64 91
e 64 100
e 65 66
e 65 68
e 65 69
e 65 71
e 65 73
e 65 74
e 65 76
e 65 77
e 65 78
e 65 79
e 65 80
e 65 81
e 65 82
e 65 83
e 65 85
e 65 87
e 65 88
e 65 89
e 65 90
e 65 91
e 65 92
e 65 93
e 65 98
e 66 69
e 66 70
e 66 71
e 66 73
e 66 74
e 66 76
e 66 77
e 66 81
e 66 82
e 66 83
e 66 85
e 66 86
e 66 87
e 66 88
e 66 89
e 66 90
e 66 93
e 66 94
e 67 69
e 67 70
e 67 73
e 67 75
e 67 77
e 67 79
e 67 80
e 67 83
e 67 84
e 67 86
e 67 87
e 67 88
e 67 89
e 67 92
e 67 93
e 67 95
e 67 96
e 68 72
e 68 73
e 68 74
e 68 75
e 68 76
e 68 77
e 68 81
e 68 83
e 68 88
e 68 89
e 68 90
e 68 91
e 68 93
e 68 94
e 68 95
e 68 97
e 68 98
e 68 99
e 69 73
e 69 74
e 69 77
e 69 80
e 69 83
e 69 84
e 69 85
e 69 89
e 69 90
e 69 94
e 69 97
e 70 71
e 70 73
e 70 76
e 70 77
e 70 80
e 70 81
e 70 82
e 70 83
e 70 85
e 70 87
e 70 88
e 70 89
e 70 91
e 70 92
e 70 93
e 70 98
e 70 99
e 71 72
e 71 73
e 71 74
e 71 75
e 71 79
e 71 80
e 71 82
e 71 83
e 71 84
e 71 86
e 71 87
e 71 88
e 71 94
e 71 97
e 71 99
e 72 74
e 72 76
e 72 77
e 72 78
e 72 82
e 72 85
e 72 86
e 72 87
e 72 88
e 72 89
e 72 91
e 72 92
e 72 93
e 72 95
e 72 96
e 73 76
e 73 77
e 73 78
e 73 80
e 73 86
e 73 87
e 73 90
e 73 91
e 73 94
e 73 96
e 73 99
e 74 75
e 74 76
e 74 78
e 74 80
e 74 84
e 74 85
e 74 88
e 74 89
e 75 76
e 75 77
e 75 78
e 75 79
e 75 80
e 75 81
e 75 82
e 75 83
e 75 84
e 75 85
e 75 86
e 75 87
e 75 88
e 75 89
e 75 92
e 75 93
e 75 94
e 75 97
e 75 99
e 76 77
e 76 80
e 76 81
e 76 83
e 76 85
e 76 87
e 76 88
e 76 90
e 76 91
e 76 93
e 76 97
e 76 98
e 77 78
e 77 80
e 77 81
e 77 82
e 77 83
e 77 85
e 77 86
e 77 88
e 77 90
e 77 91
e 77 92
e 78 80
e 78 81
e 78 83
e 78 84
e 78 85
e 78 87
e 78 88
e 78 89
e 78 92
e 78 93
e 78 98
e 79 84
e 79 87
e 79 91
e 79 92
e 79 93
e 79 97
e 79 99
e 80 81
e 80 82
e 80 83
e 80 84
e 80 85
e 80 87
e 80 89
e 80 92
e 80 95
e 80 96
e 80 98
e 80 100
e 81 86
e 81 88
e 81 89
e 81 92
e 81 93
e 81 99
e 81 100
e 82 83
e 82 86
e 82 87
e 82 90
e 82 91
e 82 93
e 82 94
e 82 96
e 83 84
e 83 85
e 83 86
e 83 87
e 83 89
e 83 90
e 83 93
e 83 95
e 83 99
e 84 85
e 84 86
e 84 88
e 84 89
e 84 90
e 84 94
e 84 95
e 84 96
e 85 95
e 85 96
e 86 87
e 86 88
e 86 89
e 86 91
e 86 93
e 86 100
e 87 90
e 87 91
e 87 93
e 87 94
e 87 96
e 87 98
e 87 99
e 88 90
e 88 91
e 88 92
e 88 93
e 88 100
e 89 92
e 89 93
e 89 95
e 89 99
e 89 100
e 90 92
e 90 93
e 90 97
e 90 99
e 90 100
e 92 99
e 93 97
e 93 99
e 94 95
e 94 97
e 94 99
e 94 100
e 95 96
e 95 97
e 95 98
e 96 98
e 96 99
e 96 100
e 97 100
e 98 100
e 99 100
